p cnf 200 1110
-101 89 0
-101 73 0
-101 71 0
-101 23 0
-101 27 0
-101 -42 0
-101 -36 0
-101 -99 0
-101 -34 0
-101 93 0
101 -89 -73 -71 -23 -27 42 36 99 34 -93 0
-102 -21 0
-102 -3 0
-102 52 0
-102 54 0
-102 -29 0
-102 89 0
-102 16 0
-102 66 0
-102 -17 0
-102 74 0
102 21 3 -52 -54 29 -89 -16 -66 17 -74 0
-103 -50 0
-103 72 0
-103 -70 0
-103 -38 0
-103 -69 0
-103 -33 0
-103 58 0
-103 16 0
-103 24 0
-103 -10 0
103 50 -72 70 38 69 33 -58 -16 -24 10 0
-104 -48 0
-104 21 0
-104 -14 0
-104 6 0
-104 -78 0
-104 -83 0
-104 -99 0
-104 18 0
-104 -36 0
-104 -17 0
104 48 -21 14 -6 78 83 99 -18 36 17 0
-105 59 0
-105 -19 0
-105 -44 0
-105 -62 0
-105 18 0
-105 88 0
-105 -1 0
-105 -27 0
-105 -80 0
-105 -91 0
105 -59 19 44 62 -18 -88 1 27 80 91 0
-106 -77 0
-106 -10 0
-106 -40 0
-106 74 0
-106 21 0
-106 -11 0
-106 94 0
-106 35 0
-106 5 0
-106 -88 0
106 77 10 40 -74 -21 11 -94 -35 -5 88 0
-107 58 0
-107 -94 0
-107 -42 0
-107 54 0
-107 -93 0
-107 -35 0
-107 66 0
-107 -24 0
-107 37 0
-107 -14 0
107 -58 94 42 -54 93 35 -66 24 -37 14 0
-108 28 0
-108 -48 0
-108 87 0
-108 -61 0
-108 31 0
-108 -11 0
-108 -74 0
-108 -54 0
-108 5 0
-108 35 0
108 -28 48 -87 61 -31 11 74 54 -5 -35 0
-109 -26 0
-109 23 0
-109 77 0
-109 8 0
-109 -71 0
-109 -96 0
-109 59 0
-109 -53 0
-109 -50 0
-109 13 0
109 26 -23 -77 -8 71 96 -59 53 50 -13 0
-110 85 0
-110 18 0
-110 20 0
-110 -82 0
-110 -89 0
-110 1 0
-110 79 0
-110 84 0
-110 35 0
-110 -63 0
110 -85 -18 -20 82 89 -1 -79 -84 -35 63 0
101 102 103 104 105 106 107 108 109 110 0
-111 75 0
-111 64 0
-111 95 0
-111 -4 0
-111 -16 0
-111 67 0
-111 -51 0
-111 40 0
-111 -10 0
-111 18 0
111 -75 -64 -95 4 16 -67 51 -40 10 -18 0
-112 -70 0
-112 48 0
-112 -1 0
-112 99 0
-112 -94 0
-112 55 0
-112 -53 0
-112 -8 0
-112 -23 0
-112 4 0
112 70 -48 1 -99 94 -55 53 8 23 -4 0
-113 74 0
-113 -11 0
-113 -33 0
-113 4 0
-113 -16 0
-113 72 0
-113 -23 0
-113 20 0
-113 29 0
-113 -75 0
113 -74 11 33 -4 16 -72 23 -20 -29 75 0
-114 12 0
-114 45 0
-114 -51 0
-114 -57 0
-114 -33 0
-114 -10 0
-114 -17 0
-114 -80 0
-114 -31 0
-114 -2 0
114 -12 -45 51 57 33 10 17 80 31 2 0
-115 59 0
-115 28 0
-115 76 0
-115 -57 0
-115 -52 0
-115 -70 0
-115 -55 0
-115 -77 0
-115 1 0
-115 49 0
115 -59 -28 -76 57 52 70 55 77 -1 -49 0
-116 -5 0
-116 35 0
-116 -73 0
-116 -99 0
-116 -64 0
-116 89 0
-116 -52 0
-116 -9 0
-116 -93 0
-116 -46 0
116 5 -35 73 99 64 -89 52 9 93 46 0
-117 -26 0
-117 24 0
-117 79 0
-117 59 0
-117 -87 0
-117 69 0
-117 28 0
-117 -45 0
-117 41 0
-117 -70 0
117 26 -24 -79 -59 87 -69 -28 45 -41 70 0
-118 -12 0
-118 90 0
-118 -11 0
-118 -57 0
-118 26 0
-118 -88 0
-118 -6 0
-118 21 0
-118 84 0
-118 -42 0
118 12 -90 11 57 -26 88 6 -21 -84 42 0
-119 -12 0
-119 69 0
-119 17 0
-119 15 0
-119 30 0
-119 -18 0
-119 44 0
-119 27 0
-119 -7 0
-119 -26 0
119 12 -69 -17 -15 -30 18 -44 -27 7 26 0
-120 -7 0
-120 -10 0
-120 -9 0
-120 53 0
-120 -50 0
-120 18 0
-120 -40 0
-120 -76 0
-120 67 0
-120 2 0
120 7 10 9 -53 50 -18 40 76 -67 -2 0
111 112 113 114 115 116 117 118 119 120 0
-121 41 0
-121 93 0
-121 -9 0
-121 21 0
-121 50 0
-121 62 0
-121 64 0
-121 -48 0
-121 -27 0
-121 -30 0
121 -41 -93 9 -21 -50 -62 -64 48 27 30 0
-122 85 0
-122 28 0
-122 -54 0
-122 8 0
-122 71 0
-122 38 0
-122 -15 0
-122 -69 0
-122 -88 0
-122 -99 0
122 -85 -28 54 -8 -71 -38 15 69 88 99 0
-123 -30 0
-123 -48 0
-123 -72 0
-123 64 0
-123 -84 0
-123 99 0
-123 16 0
-123 -63 0
-123 76 0
-123 -53 0
123 30 48 72 -64 84 -99 -16 63 -76 53 0
-124 73 0
-124 -29 0
-124 17 0
-124 4 0
-124 1 0
-124 23 0
-124 -35 0
-124 3 0
-124 22 0
-124 15 0
124 -73 29 -17 -4 -1 -23 35 -3 -22 -15 0
-125 -47 0
-125 22 0
-125 -16 0
-125 -86 0
-125 76 0
-125 42 0
-125 53 0
-125 -17 0
-125 -58 0
-125 -75 0
125 47 -22 16 86 -76 -42 -53 17 58 75 0
-126 -56 0
-126 -42 0
-126 57 0
-126 -2 0
-126 84 0
-126 -29 0
-126 -52 0
-126 71 0
-126 -51 0
-126 21 0
126 56 42 -57 2 -84 29 52 -71 51 -21 0
-127 -3 0
-127 33 0
-127 62 0
-127 -34 0
-127 87 0
-127 -67 0
-127 -13 0
-127 -91 0
-127 -99 0
-127 -30 0
127 3 -33 -62 34 -87 67 13 91 99 30 0
-128 -9 0
-128 47 0
-128 27 0
-128 -21 0
-128 23 0
-128 -5 0
-128 -65 0
-128 -19 0
-128 -52 0
-128 77 0
128 9 -47 -27 21 -23 5 65 19 52 -77 0
-129 80 0
-129 -74 0
-129 -96 0
-129 54 0
-129 -26 0
-129 75 0
-129 -57 0
-129 32 0
-129 -31 0
-129 30 0
129 -80 74 96 -54 26 -75 57 -32 31 -30 0
-130 -27 0
-130 37 0
-130 26 0
-130 13 0
-130 3 0
-130 78 0
-130 -24 0
-130 -81 0
-130 -94 0
-130 -72 0
130 27 -37 -26 -13 -3 -78 24 81 94 72 0
121 122 123 124 125 126 127 128 129 130 0
-131 83 0
-131 84 0
-131 79 0
-131 -42 0
-131 10 0
-131 -26 0
-131 -9 0
-131 -2 0
-131 -63 0
-131 15 0
131 -83 -84 -79 42 -10 26 9 2 63 -15 0
-132 -29 0
-132 -13 0
-132 -98 0
-132 82 0
-132 28 0
-132 -59 0
-132 -38 0
-132 -88 0
-132 -95 0
-132 31 0
132 29 13 98 -82 -28 59 38 88 95 -31 0
-133 56 0
-133 -13 0
-133 -42 0
-133 -5 0
-133 55 0
-133 -86 0
-133 7 0
-133 76 0
-133 31 0
-133 54 0
133 -56 13 42 5 -55 86 -7 -76 -31 -54 0
-134 -13 0
-134 51 0
-134 -31 0
-134 10 0
-134 35 0
-134 17 0
-134 -40 0
-134 91 0
-134 -61 0
-134 -90 0
134 13 -51 31 -10 -35 -17 40 -91 61 90 0
-135 -94 0
-135 25 0
-135 91 0
-135 1 0
-135 -60 0
-135 83 0
-135 -14 0
-135 -82 0
-135 -54 0
-135 55 0
135 94 -25 -91 -1 60 -83 14 82 54 -55 0
-136 -24 0
-136 -59 0
-136 40 0
-136 8 0
-136 68 0
-136 84 0
-136 -9 0
-136 -87 0
-136 -81 0
-136 52 0
136 24 59 -40 -8 -68 -84 9 87 81 -52 0
-137 -38 0
-137 -28 0
-137 90 0
-137 -44 0
-137 -62 0
-137 61 0
-137 -93 0
-137 69 0
-137 85 0
-137 71 0
137 38 28 -90 44 62 -61 93 -69 -85 -71 0
-138 -53 0
-138 -15 0
-138 -52 0
-138 50 0
-138 41 0
-138 34 0
-138 -89 0
-138 -47 0
-138 33 0
-138 5 0
138 53 15 52 -50 -41 -34 89 47 -33 -5 0
-139 76 0
-139 13 0
-139 -53 0
-139 27 0
-139 74 0
-139 18 0
-139 -79 0
-139 -88 0
-139 -50 0
-139 -100 0
139 -76 -13 53 -27 -74 -18 79 88 50 100 0
-140 -52 0
-140 -91 0
-140 84 0
-140 -75 0
-140 -83 0
-140 95 0
-140 32 0
-140 -35 0
-140 98 0
-140 -70 0
140 52 91 -84 75 83 -95 -32 35 -98 70 0
131 132 133 134 135 136 137 138 139 140 0
-141 -94 0
-141 62 0
-141 -80 0
-141 83 0
-141 49 0
-141 -24 0
-141 96 0
-141 -8 0
-141 -45 0
-141 27 0
141 94 -62 80 -83 -49 24 -96 8 45 -27 0
-142 24 0
-142 -77 0
-142 74 0
-142 -94 0
-142 40 0
-142 93 0
-142 89 0
-142 -79 0
-142 37 0
-142 -4 0
142 -24 77 -74 94 -40 -93 -89 79 -37 4 0
-143 84 0
-143 93 0
-143 -24 0
-143 100 0
-143 -35 0
-143 49 0
-143 -61 0
-143 -6 0
-143 59 0
-143 55 0
143 -84 -93 24 -100 35 -49 61 6 -59 -55 0
-144 -30 0
-144 -32 0
-144 51 0
-144 100 0
-144 88 0
-144 2 0
-144 15 0
-144 55 0
-144 38 0
-144 20 0
144 30 32 -51 -100 -88 -2 -15 -55 -38 -20 0
-145 -15 0
-145 -13 0
-145 -39 0
-145 23 0
-145 -35 0
-145 -55 0
-145 49 0
-145 -97 0
-145 -50 0
-145 8 0
145 15 13 39 -23 35 55 -49 97 50 -8 0
-146 -84 0
-146 59 0
-146 92 0
-146 13 0
-146 3 0
-146 -58 0
-146 -49 0
-146 71 0
-146 60 0
-146 -61 0
146 84 -59 -92 -13 -3 58 49 -71 -60 61 0
-147 81 0
-147 61 0
-147 6 0
-147 15 0
-147 16 0
-147 29 0
-147 63 0
-147 87 0
-147 52 0
-147 21 0
147 -81 -61 -6 -15 -16 -29 -63 -87 -52 -21 0
-148 -72 0
-148 5 0
-148 -44 0
-148 19 0
-148 -69 0
-148 35 0
-148 61 0
-148 63 0
-148 16 0
-148 -34 0
148 72 -5 44 -19 69 -35 -61 -63 -16 34 0
-149 -57 0
-149 -41 0
-149 -77 0
-149 76 0
-149 46 0
-149 14 0
-149 -44 0
-149 -98 0
-149 25 0
-149 85 0
149 57 41 77 -76 -46 -14 44 98 -25 -85 0
-150 31 0
-150 -77 0
-150 17 0
-150 -63 0
-150 11 0
-150 99 0
-150 -30 0
-150 2 0
-150 88 0
-150 41 0
150 -31 77 -17 63 -11 -99 30 -2 -88 -41 0
141 142 143 144 145 146 147 148 149 150 0
-151 18 0
-151 -37 0
-151 -38 0
-151 70 0
-151 -50 0
-151 29 0
-151 -3 0
-151 31 0
-151 1 0
-151 36 0
151 -18 37 38 -70 50 -29 3 -31 -1 -36 0
-152 69 0
-152 -4 0
-152 -40 0
-152 42 0
-152 37 0
-152 -55 0
-152 -3 0
-152 -47 0
-152 -72 0
-152 -85 0
152 -69 4 40 -42 -37 55 3 47 72 85 0
-153 -46 0
-153 100 0
-153 58 0
-153 -26 0
-153 -35 0
-153 8 0
-153 -89 0
-153 17 0
-153 -92 0
-153 94 0
153 46 -100 -58 26 35 -8 89 -17 92 -94 0
-154 -17 0
-154 83 0
-154 -95 0
-154 71 0
-154 42 0
-154 -29 0
-154 94 0
-154 46 0
-154 -59 0
-154 32 0
154 17 -83 95 -71 -42 29 -94 -46 59 -32 0
-155 34 0
-155 66 0
-155 67 0
-155 53 0
-155 93 0
-155 -20 0
-155 -36 0
-155 -83 0
-155 -18 0
-155 -79 0
155 -34 -66 -67 -53 -93 20 36 83 18 79 0
-156 34 0
-156 6 0
-156 -9 0
-156 65 0
-156 14 0
-156 -44 0
-156 78 0
-156 -97 0
-156 -5 0
-156 -13 0
156 -34 -6 9 -65 -14 44 -78 97 5 13 0
-157 -60 0
-157 -84 0
-157 88 0
-157 -8 0
-157 83 0
-157 -33 0
-157 43 0
-157 -17 0
-157 96 0
-157 7 0
157 60 84 -88 8 -83 33 -43 17 -96 -7 0
-158 -8 0
-158 -6 0
-158 62 0
-158 80 0
-158 -82 0
-158 12 0
-158 -65 0
-158 29 0
-158 28 0
-158 17 0
158 8 6 -62 -80 82 -12 65 -29 -28 -17 0
-159 -39 0
-159 -99 0
-159 29 0
-159 81 0
-159 -43 0
-159 -69 0
-159 -55 0
-159 82 0
-159 75 0
-159 44 0
159 39 99 -29 -81 43 69 55 -82 -75 -44 0
-160 -14 0
-160 -70 0
-160 -79 0
-160 37 0
-160 -52 0
-160 82 0
-160 -46 0
-160 -83 0
-160 44 0
-160 -18 0
160 14 70 79 -37 52 -82 46 83 -44 18 0
151 152 153 154 155 156 157 158 159 160 0
-161 -97 0
-161 -21 0
-161 56 0
-161 36 0
-161 59 0
-161 -26 0
-161 55 0
-161 -51 0
-161 47 0
-161 -27 0
161 97 21 -56 -36 -59 26 -55 51 -47 27 0
-162 -81 0
-162 -51 0
-162 48 0
-162 18 0
-162 -11 0
-162 33 0
-162 -56 0
-162 96 0
-162 -25 0
-162 19 0
162 81 51 -48 -18 11 -33 56 -96 25 -19 0
-163 71 0
-163 -4 0
-163 -85 0
-163 2 0
-163 38 0
-163 -51 0
-163 -46 0
-163 91 0
-163 -11 0
-163 -69 0
163 -71 4 85 -2 -38 51 46 -91 11 69 0
-164 64 0
-164 -72 0
-164 -71 0
-164 -79 0
-164 -76 0
-164 -93 0
-164 -34 0
-164 29 0
-164 -98 0
-164 21 0
164 -64 72 71 79 76 93 34 -29 98 -21 0
-165 -99 0
-165 -6 0
-165 -69 0
-165 12 0
-165 86 0
-165 24 0
-165 10 0
-165 -88 0
-165 -55 0
-165 79 0
165 99 6 69 -12 -86 -24 -10 88 55 -79 0
-166 79 0
-166 54 0
-166 18 0
-166 -83 0
-166 -31 0
-166 40 0
-166 82 0
-166 -100 0
-166 36 0
-166 95 0
166 -79 -54 -18 83 31 -40 -82 100 -36 -95 0
-167 -76 0
-167 83 0
-167 72 0
-167 -12 0
-167 87 0
-167 -88 0
-167 -24 0
-167 -99 0
-167 4 0
-167 47 0
167 76 -83 -72 12 -87 88 24 99 -4 -47 0
-168 5 0
-168 68 0
-168 -25 0
-168 45 0
-168 -61 0
-168 59 0
-168 19 0
-168 70 0
-168 -15 0
-168 -77 0
168 -5 -68 25 -45 61 -59 -19 -70 15 77 0
-169 9 0
-169 -98 0
-169 -69 0
-169 -80 0
-169 -55 0
-169 26 0
-169 39 0
-169 -1 0
-169 70 0
-169 -77 0
169 -9 98 69 80 55 -26 -39 1 -70 77 0
-170 59 0
-170 4 0
-170 -88 0
-170 -17 0
-170 -20 0
-170 -41 0
-170 38 0
-170 -72 0
-170 -29 0
-170 -64 0
170 -59 -4 88 17 20 41 -38 72 29 64 0
161 162 163 164 165 166 167 168 169 170 0
-171 79 0
-171 -86 0
-171 22 0
-171 -94 0
-171 48 0
-171 -42 0
-171 -76 0
-171 -28 0
-171 -50 0
-171 -35 0
171 -79 86 -22 94 -48 42 76 28 50 35 0
-172 5 0
-172 -8 0
-172 4 0
-172 28 0
-172 34 0
-172 -84 0
-172 -51 0
-172 6 0
-172 -95 0
-172 61 0
172 -5 8 -4 -28 -34 84 51 -6 95 -61 0
-173 10 0
-173 -12 0
-173 -78 0
-173 -64 0
-173 -86 0
-173 61 0
-173 -63 0
-173 -3 0
-173 -73 0
-173 -66 0
173 -10 12 78 64 86 -61 63 3 73 66 0
-174 -95 0
-174 19 0
-174 64 0
-174 -18 0
-174 -23 0
-174 30 0
-174 -26 0
-174 -60 0
-174 83 0
-174 44 0
174 95 -19 -64 18 23 -30 26 60 -83 -44 0
-175 -84 0
-175 -60 0
-175 21 0
-175 87 0
-175 -96 0
-175 -91 0
-175 65 0
-175 -68 0
-175 -4 0
-175 98 0
175 84 60 -21 -87 96 91 -65 68 4 -98 0
-176 -25 0
-176 69 0
-176 78 0
-176 12 0
-176 -59 0
-176 79 0
-176 -75 0
-176 22 0
-176 -43 0
-176 7 0
176 25 -69 -78 -12 59 -79 75 -22 43 -7 0
-177 -78 0
-177 -7 0
-177 37 0
-177 95 0
-177 72 0
-177 74 0
-177 -52 0
-177 -59 0
-177 -15 0
-177 89 0
177 78 7 -37 -95 -72 -74 52 59 15 -89 0
-178 -71 0
-178 -65 0
-178 -72 0
-178 -29 0
-178 -46 0
-178 -24 0
-178 7 0
-178 -50 0
-178 -5 0
-178 -74 0
178 71 65 72 29 46 24 -7 50 5 74 0
-179 -55 0
-179 82 0
-179 23 0
-179 83 0
-179 49 0
-179 79 0
-179 -62 0
-179 75 0
-179 -27 0
-179 -91 0
179 55 -82 -23 -83 -49 -79 62 -75 27 91 0
-180 89 0
-180 9 0
-180 58 0
-180 64 0
-180 7 0
-180 -67 0
-180 -98 0
-180 -22 0
-180 63 0
-180 94 0
180 -89 -9 -58 -64 -7 67 98 22 -63 -94 0
171 172 173 174 175 176 177 178 179 180 0
-181 -93 0
-181 60 0
-181 -24 0
-181 -2 0
-181 59 0
-181 -7 0
-181 89 0
-181 -23 0
-181 11 0
-181 26 0
181 93 -60 24 2 -59 7 -89 23 -11 -26 0
-182 -79 0
-182 -40 0
-182 -49 0
-182 -62 0
-182 68 0
-182 -69 0
-182 53 0
-182 13 0
-182 -4 0
-182 37 0
182 79 40 49 62 -68 69 -53 -13 4 -37 0
-183 -36 0
-183 -11 0
-183 -32 0
-183 -76 0
-183 95 0
-183 -29 0
-183 -16 0
-183 -15 0
-183 -49 0
-183 66 0
183 36 11 32 76 -95 29 16 15 49 -66 0
-184 -50 0
-184 -94 0
-184 -3 0
-184 -87 0
-184 -27 0
-184 99 0
-184 91 0
-184 -72 0
-184 -83 0
-184 9 0
184 50 94 3 87 27 -99 -91 72 83 -9 0
-185 43 0
-185 99 0
-185 -38 0
-185 -5 0
-185 -92 0
-185 53 0
-185 -31 0
-185 -24 0
-185 41 0
-185 54 0
185 -43 -99 38 5 92 -53 31 24 -41 -54 0
-186 41 0
-186 -28 0
-186 -7 0
-186 -39 0
-186 85 0
-186 54 0
-186 1 0
-186 -64 0
-186 13 0
-186 55 0
186 -41 28 7 39 -85 -54 -1 64 -13 -55 0
-187 -43 0
-187 -49 0
-187 -65 0
-187 -61 0
-187 -24 0
-187 -22 0
-187 -94 0
-187 -73 0
-187 9 0
-187 -13 0
187 43 49 65 61 24 22 94 73 -9 13 0
-188 -8 0
-188 52 0
-188 -13 0
-188 84 0
-188 -73 0
-188 59 0
-188 -81 0
-188 61 0
-188 -98 0
-188 33 0
188 8 -52 13 -84 73 -59 81 -61 98 -33 0
-189 -51 0
-189 -87 0
-189 2 0
-189 9 0
-189 13 0
-189 56 0
-189 -67 0
-189 58 0
-189 61 0
-189 46 0
189 51 87 -2 -9 -13 -56 67 -58 -61 -46 0
-190 -46 0
-190 45 0
-190 71 0
-190 92 0
-190 44 0
-190 -3 0
-190 60 0
-190 32 0
-190 85 0
-190 -17 0
190 46 -45 -71 -92 -44 3 -60 -32 -85 17 0
181 182 183 184 185 186 187 188 189 190 0
-191 35 0
-191 -19 0
-191 21 0
-191 -67 0
-191 -78 0
-191 13 0
-191 2 0
-191 85 0
-191 66 0
-191 48 0
191 -35 19 -21 67 78 -13 -2 -85 -66 -48 0
-192 42 0
-192 79 0
-192 51 0
-192 -21 0
-192 -84 0
-192 71 0
-192 76 0
-192 62 0
-192 -43 0
-192 41 0
192 -42 -79 -51 21 84 -71 -76 -62 43 -41 0
-193 -35 0
-193 -82 0
-193 -45 0
-193 -16 0
-193 9 0
-193 83 0
-193 23 0
-193 -100 0
-193 32 0
-193 -20 0
193 35 82 45 16 -9 -83 -23 100 -32 20 0
-194 81 0
-194 84 0
-194 90 0
-194 54 0
-194 -52 0
-194 -75 0
-194 -69 0
-194 -41 0
-194 -5 0
-194 -12 0
194 -81 -84 -90 -54 52 75 69 41 5 12 0
-195 31 0
-195 -46 0
-195 -28 0
-195 -3 0
-195 -69 0
-195 39 0
-195 -44 0
-195 67 0
-195 53 0
-195 36 0
195 -31 46 28 3 69 -39 44 -67 -53 -36 0
-196 16 0
-196 68 0
-196 49 0
-196 -57 0
-196 -17 0
-196 72 0
-196 -47 0
-196 -63 0
-196 -32 0
-196 92 0
196 -16 -68 -49 57 17 -72 47 63 32 -92 0
-197 45 0
-197 14 0
-197 30 0
-197 21 0
-197 32 0
-197 -94 0
-197 19 0
-197 97 0
-197 -87 0
-197 -56 0
197 -45 -14 -30 -21 -32 94 -19 -97 87 56 0
-198 57 0
-198 -97 0
-198 83 0
-198 87 0
-198 -96 0
-198 85 0
-198 -37 0
-198 -33 0
-198 1 0
-198 41 0
198 -57 97 -83 -87 96 -85 37 33 -1 -41 0
-199 48 0
-199 81 0
-199 17 0
-199 -9 0
-199 -2 0
-199 20 0
-199 5 0
-199 -74 0
-199 -45 0
-199 30 0
199 -48 -81 -17 9 2 -20 -5 74 45 -30 0
-200 21 0
-200 -65 0
-200 -77 0
-200 72 0
-200 -67 0
-200 -24 0
-200 57 0
-200 -69 0
-200 -75 0
-200 8 0
200 -21 65 77 -72 67 24 -57 69 75 -8 0
191 192 193 194 195 196 197 198 199 200 0
